54160
37, 51, 40, 43, 3, 6, 28, 55, 26, 49, 48, 17, 29, 21, 22, 10, 16, 39, 46, 36, 15, 52, 42, 33, 1, 27, 31, 25, 11, 45, 2, 14, 9, 12, 18, 4, 30, 47, 54, 34, 53, 23, 19, 44, 8, 38, 32, 41, 13, 5, 35, 24, 50, 20, 7
